
%FILE DATA:	Soccer Computational Problem for MiniZinc Models	%
%AUTHOR:	Jack Wall	%
%CONTACT:  	116397063@umail.ucc.ie			%
%LAST UPDATE:	03/11/2020, 17:01:55						%
%DESCRIPTION: 	117 games played with 39 games left				%


n=13; %number of teams

%Games to play
games=[|1,4|10,9|7,11|1,9|6,8|11,5|3,11|10,8|7,4|6,5|13,9|10,7|4,6|10,2|11,4|12,1|5,8|9,8|11,9|3,6|5,1|5,11|10,12|2,7|12,3|13,10|7,8|6,3|12,10|5,10|13,3|6,4|4,7|10,6|13,1|10,13|9,2|6,11|10,1|];

%Initial points
iPoints=[32,25,28,25,26,15,18,17,27,22,27,29,27];

%POSITION CONSTRAINTS
% [|teamID, operator, position|...]
% operators index:
%  1 for =  operator
%  2 for >  operator
%  3 for >= operator
%  4 for <  operator
%  5 for <= operator
positionConstraints=[|9,3,1|5,1,2|];